(set-logic ALL)
; rows (m) = 600
; cols (n) = 1
(declare-const D (Array Int (Array Int Int)))
(define-fun m () Int 600)
(define-fun n () Int 1)

(define-fun row1 ((x0 Int)) (Array Int Int)
  (store ((as const (Array Int Int)) 0) 0 x0)
)

(assert (= (select D 0) (row1 261)))
(assert (= (select D 1) (row1 151)))
(assert (= (select D 2) (row1 76)))
(assert (= (select D 3) (row1 92)))
(assert (= (select D 4) (row1 198)))
(assert (= (select D 5) (row1 139)))
(assert (= (select D 6) (row1 217)))
(assert (= (select D 7) (row1 380)))
(assert (= (select D 8) (row1 50)))
(assert (= (select D 9) (row1 55)))
(assert (= (select D 10) (row1 222)))
(assert (= (select D 11) (row1 137)))
(assert (= (select D 12) (row1 517)))
(assert (= (select D 13) (row1 71)))
(assert (= (select D 14) (row1 174)))
(assert (= (select D 15) (row1 353)))
(assert (= (select D 16) (row1 98)))
(assert (= (select D 17) (row1 38)))
(assert (= (select D 18) (row1 219)))
(assert (= (select D 19) (row1 54)))
(assert (= (select D 20) (row1 262)))
(assert (= (select D 21) (row1 164)))
(assert (= (select D 22) (row1 160)))
(assert (= (select D 23) (row1 342)))
(assert (= (select D 24) (row1 181)))
(assert (= (select D 25) (row1 172)))
(assert (= (select D 26) (row1 296)))
(assert (= (select D 27) (row1 127)))
(assert (= (select D 28) (row1 255)))
(assert (= (select D 29) (row1 348)))
(assert (= (select D 30) (row1 225)))
(assert (= (select D 31) (row1 230)))
(assert (= (select D 32) (row1 208)))
(assert (= (select D 33) (row1 226)))
(assert (= (select D 34) (row1 336)))
(assert (= (select D 35) (row1 242)))
(assert (= (select D 36) (row1 365)))
(assert (= (select D 37) (row1 1666)))
(assert (= (select D 38) (row1 577)))
(assert (= (select D 39) (row1 137)))
(assert (= (select D 40) (row1 160)))
(assert (= (select D 41) (row1 180)))
(assert (= (select D 42) (row1 22)))
(assert (= (select D 43) (row1 1492)))
(assert (= (select D 44) (row1 616)))
(assert (= (select D 45) (row1 242)))
(assert (= (select D 46) (row1 355)))
(assert (= (select D 47) (row1 225)))
(assert (= (select D 48) (row1 160)))
(assert (= (select D 49) (row1 363)))
(assert (= (select D 50) (row1 266)))
(assert (= (select D 51) (row1 253)))
(assert (= (select D 52) (row1 179)))
(assert (= (select D 53) (row1 787)))
(assert (= (select D 54) (row1 145)))
(assert (= (select D 55) (row1 174)))
(assert (= (select D 56) (row1 104)))
(assert (= (select D 57) (row1 13)))
(assert (= (select D 58) (row1 185)))
(assert (= (select D 59) (row1 1778)))
(assert (= (select D 60) (row1 138)))
(assert (= (select D 61) (row1 812)))
(assert (= (select D 62) (row1 164)))
(assert (= (select D 63) (row1 391)))
(assert (= (select D 64) (row1 357)))
(assert (= (select D 65) (row1 91)))
(assert (= (select D 66) (row1 528)))
(assert (= (select D 67) (row1 273)))
(assert (= (select D 68) (row1 158)))
(assert (= (select D 69) (row1 177)))
(assert (= (select D 70) (row1 258)))
(assert (= (select D 71) (row1 172)))
(assert (= (select D 72) (row1 154)))
(assert (= (select D 73) (row1 291)))
(assert (= (select D 74) (row1 181)))
(assert (= (select D 75) (row1 176)))
(assert (= (select D 76) (row1 211)))
(assert (= (select D 77) (row1 349)))
(assert (= (select D 78) (row1 272)))
(assert (= (select D 79) (row1 208)))
(assert (= (select D 80) (row1 193)))
(assert (= (select D 81) (row1 212)))
(assert (= (select D 82) (row1 20)))
(assert (= (select D 83) (row1 1042)))
(assert (= (select D 84) (row1 246)))
(assert (= (select D 85) (row1 529)))
(assert (= (select D 86) (row1 1467)))
(assert (= (select D 87) (row1 1389)))
(assert (= (select D 88) (row1 188)))
(assert (= (select D 89) (row1 180)))
(assert (= (select D 90) (row1 48)))
(assert (= (select D 91) (row1 213)))
(assert (= (select D 92) (row1 583)))
(assert (= (select D 93) (row1 221)))
(assert (= (select D 94) (row1 173)))
(assert (= (select D 95) (row1 426)))
(assert (= (select D 96) (row1 287)))
(assert (= (select D 97) (row1 101)))
(assert (= (select D 98) (row1 203)))
(assert (= (select D 99) (row1 197)))
(assert (= (select D 100) (row1 257)))
(assert (= (select D 101) (row1 124)))
(assert (= (select D 102) (row1 229)))
(assert (= (select D 103) (row1 55)))
(assert (= (select D 104) (row1 400)))
(assert (= (select D 105) (row1 197)))
(assert (= (select D 106) (row1 190)))
(assert (= (select D 107) (row1 21)))
(assert (= (select D 108) (row1 514)))
(assert (= (select D 109) (row1 849)))
(assert (= (select D 110) (row1 194)))
(assert (= (select D 111) (row1 144)))
(assert (= (select D 112) (row1 212)))
(assert (= (select D 113) (row1 286)))
(assert (= (select D 114) (row1 107)))
(assert (= (select D 115) (row1 247)))
(assert (= (select D 116) (row1 518)))
(assert (= (select D 117) (row1 364)))
(assert (= (select D 118) (row1 178)))
(assert (= (select D 119) (row1 98)))
(assert (= (select D 120) (row1 439)))
(assert (= (select D 121) (row1 79)))
(assert (= (select D 122) (row1 120)))
(assert (= (select D 123) (row1 127)))
(assert (= (select D 124) (row1 175)))
(assert (= (select D 125) (row1 262)))
(assert (= (select D 126) (row1 61)))
(assert (= (select D 127) (row1 78)))
(assert (= (select D 128) (row1 143)))
(assert (= (select D 129) (row1 579)))
(assert (= (select D 130) (row1 677)))
(assert (= (select D 131) (row1 345)))
(assert (= (select D 132) (row1 185)))
(assert (= (select D 133) (row1 100)))
(assert (= (select D 134) (row1 125)))
(assert (= (select D 135) (row1 193)))
(assert (= (select D 136) (row1 136)))
(assert (= (select D 137) (row1 73)))
(assert (= (select D 138) (row1 528)))
(assert (= (select D 139) (row1 541)))
(assert (= (select D 140) (row1 163)))
(assert (= (select D 141) (row1 301)))
(assert (= (select D 142) (row1 46)))
(assert (= (select D 143) (row1 204)))
(assert (= (select D 144) (row1 98)))
(assert (= (select D 145) (row1 71)))
(assert (= (select D 146) (row1 157)))
(assert (= (select D 147) (row1 243)))
(assert (= (select D 148) (row1 186)))
(assert (= (select D 149) (row1 579)))
(assert (= (select D 150) (row1 163)))
(assert (= (select D 151) (row1 610)))
(assert (= (select D 152) (row1 2033)))
(assert (= (select D 153) (row1 85)))
(assert (= (select D 154) (row1 114)))
(assert (= (select D 155) (row1 114)))
(assert (= (select D 156) (row1 57)))
(assert (= (select D 157) (row1 238)))
(assert (= (select D 158) (row1 93)))
(assert (= (select D 159) (row1 128)))
(assert (= (select D 160) (row1 107)))
(assert (= (select D 161) (row1 181)))
(assert (= (select D 162) (row1 303)))
(assert (= (select D 163) (row1 558)))
(assert (= (select D 164) (row1 270)))
(assert (= (select D 165) (row1 228)))
(assert (= (select D 166) (row1 99)))
(assert (= (select D 167) (row1 240)))
(assert (= (select D 168) (row1 673)))
(assert (= (select D 169) (row1 233)))
(assert (= (select D 170) (row1 1056)))
(assert (= (select D 171) (row1 250)))
(assert (= (select D 172) (row1 252)))
(assert (= (select D 173) (row1 138)))
(assert (= (select D 174) (row1 130)))
(assert (= (select D 175) (row1 412)))
(assert (= (select D 176) (row1 179)))
(assert (= (select D 177) (row1 19)))
(assert (= (select D 178) (row1 458)))
(assert (= (select D 179) (row1 717)))
(assert (= (select D 180) (row1 313)))
(assert (= (select D 181) (row1 683)))
(assert (= (select D 182) (row1 1077)))
(assert (= (select D 183) (row1 416)))
(assert (= (select D 184) (row1 146)))
(assert (= (select D 185) (row1 167)))
(assert (= (select D 186) (row1 315)))
(assert (= (select D 187) (row1 140)))
(assert (= (select D 188) (row1 346)))
(assert (= (select D 189) (row1 562)))
(assert (= (select D 190) (row1 172)))
(assert (= (select D 191) (row1 217)))
(assert (= (select D 192) (row1 142)))
(assert (= (select D 193) (row1 67)))
(assert (= (select D 194) (row1 291)))
(assert (= (select D 195) (row1 309)))
(assert (= (select D 196) (row1 248)))
(assert (= (select D 197) (row1 98)))
(assert (= (select D 198) (row1 256)))
(assert (= (select D 199) (row1 82)))
(assert (= (select D 200) (row1 577)))
(assert (= (select D 201) (row1 286)))
(assert (= (select D 202) (row1 477)))
(assert (= (select D 203) (row1 611)))
(assert (= (select D 204) (row1 471)))
(assert (= (select D 205) (row1 381)))
(assert (= (select D 206) (row1 42)))
(assert (= (select D 207) (row1 251)))
(assert (= (select D 208) (row1 408)))
(assert (= (select D 209) (row1 215)))
(assert (= (select D 210) (row1 287)))
(assert (= (select D 211) (row1 216)))
(assert (= (select D 212) (row1 366)))
(assert (= (select D 213) (row1 210)))
(assert (= (select D 214) (row1 288)))
(assert (= (select D 215) (row1 168)))
(assert (= (select D 216) (row1 338)))
(assert (= (select D 217) (row1 410)))
(assert (= (select D 218) (row1 177)))
(assert (= (select D 219) (row1 127)))
(assert (= (select D 220) (row1 357)))
(assert (= (select D 221) (row1 175)))
(assert (= (select D 222) (row1 300)))
(assert (= (select D 223) (row1 136)))
(assert (= (select D 224) (row1 1419)))
(assert (= (select D 225) (row1 125)))
(assert (= (select D 226) (row1 213)))
(assert (= (select D 227) (row1 27)))
(assert (= (select D 228) (row1 238)))
(assert (= (select D 229) (row1 124)))
(assert (= (select D 230) (row1 18)))
(assert (= (select D 231) (row1 730)))
(assert (= (select D 232) (row1 746)))
(assert (= (select D 233) (row1 121)))
(assert (= (select D 234) (row1 247)))
(assert (= (select D 235) (row1 40)))
(assert (= (select D 236) (row1 181)))
(assert (= (select D 237) (row1 79)))
(assert (= (select D 238) (row1 206)))
(assert (= (select D 239) (row1 389)))
(assert (= (select D 240) (row1 127)))
(assert (= (select D 241) (row1 702)))
(assert (= (select D 242) (row1 151)))
(assert (= (select D 243) (row1 117)))
(assert (= (select D 244) (row1 232)))
(assert (= (select D 245) (row1 408)))
(assert (= (select D 246) (row1 179)))
(assert (= (select D 247) (row1 39)))
(assert (= (select D 248) (row1 282)))
(assert (= (select D 249) (row1 714)))
(assert (= (select D 250) (row1 50)))
(assert (= (select D 251) (row1 181)))
(assert (= (select D 252) (row1 142)))
(assert (= (select D 253) (row1 227)))
(assert (= (select D 254) (row1 119)))
(assert (= (select D 255) (row1 361)))
(assert (= (select D 256) (row1 73)))
(assert (= (select D 257) (row1 67)))
(assert (= (select D 258) (row1 350)))
(assert (= (select D 259) (row1 332)))
(assert (= (select D 260) (row1 611)))
(assert (= (select D 261) (row1 113)))
(assert (= (select D 262) (row1 132)))
(assert (= (select D 263) (row1 58)))
(assert (= (select D 264) (row1 151)))
(assert (= (select D 265) (row1 89)))
(assert (= (select D 266) (row1 152)))
(assert (= (select D 267) (row1 611)))
(assert (= (select D 268) (row1 110)))
(assert (= (select D 269) (row1 463)))
(assert (= (select D 270) (row1 562)))
(assert (= (select D 271) (row1 962)))
(assert (= (select D 272) (row1 10)))
(assert (= (select D 273) (row1 118)))
(assert (= (select D 274) (row1 92)))
(assert (= (select D 275) (row1 143)))
(assert (= (select D 276) (row1 189)))
(assert (= (select D 277) (row1 234)))
(assert (= (select D 278) (row1 75)))
(assert (= (select D 279) (row1 189)))
(assert (= (select D 280) (row1 621)))
(assert (= (select D 281) (row1 55)))
(assert (= (select D 282) (row1 310)))
(assert (= (select D 283) (row1 156)))
(assert (= (select D 284) (row1 5)))
(assert (= (select D 285) (row1 225)))
(assert (= (select D 286) (row1 125)))
(assert (= (select D 287) (row1 2)))
(assert (= (select D 288) (row1 286)))
(assert (= (select D 289) (row1 164)))
(assert (= (select D 290) (row1 98)))
(assert (= (select D 291) (row1 742)))
(assert (= (select D 292) (row1 226)))
(assert (= (select D 293) (row1 120)))
(assert (= (select D 294) (row1 362)))
(assert (= (select D 295) (row1 357)))
(assert (= (select D 296) (row1 200)))
(assert (= (select D 297) (row1 204)))
(assert (= (select D 298) (row1 126)))
(assert (= (select D 299) (row1 65)))
(assert (= (select D 300) (row1 107)))
(assert (= (select D 301) (row1 267)))
(assert (= (select D 302) (row1 248)))
(assert (= (select D 303) (row1 215)))
(assert (= (select D 304) (row1 209)))
(assert (= (select D 305) (row1 205)))
(assert (= (select D 306) (row1 83)))
(assert (= (select D 307) (row1 106)))
(assert (= (select D 308) (row1 189)))
(assert (= (select D 309) (row1 105)))
(assert (= (select D 310) (row1 106)))
(assert (= (select D 311) (row1 108)))
(assert (= (select D 312) (row1 311)))
(assert (= (select D 313) (row1 214)))
(assert (= (select D 314) (row1 132)))
(assert (= (select D 315) (row1 358)))
(assert (= (select D 316) (row1 453)))
(assert (= (select D 317) (row1 364)))
(assert (= (select D 318) (row1 136)))
(assert (= (select D 319) (row1 386)))
(assert (= (select D 320) (row1 173)))
(assert (= (select D 321) (row1 241)))
(assert (= (select D 322) (row1 224)))
(assert (= (select D 323) (row1 148)))
(assert (= (select D 324) (row1 196)))
(assert (= (select D 325) (row1 111)))
(assert (= (select D 326) (row1 231)))
(assert (= (select D 327) (row1 316)))
(assert (= (select D 328) (row1 216)))
(assert (= (select D 329) (row1 240)))
(assert (= (select D 330) (row1 669)))
(assert (= (select D 331) (row1 425)))
(assert (= (select D 332) (row1 143)))
(assert (= (select D 333) (row1 174)))
(assert (= (select D 334) (row1 313)))
(assert (= (select D 335) (row1 135)))
(assert (= (select D 336) (row1 146)))
(assert (= (select D 337) (row1 152)))
(assert (= (select D 338) (row1 402)))
(assert (= (select D 339) (row1 213)))
(assert (= (select D 340) (row1 144)))
(assert (= (select D 341) (row1 124)))
(assert (= (select D 342) (row1 183)))
(assert (= (select D 343) (row1 325)))
(assert (= (select D 344) (row1 39)))
(assert (= (select D 345) (row1 503)))
(assert (= (select D 346) (row1 95)))
(assert (= (select D 347) (row1 680)))
(assert (= (select D 348) (row1 421)))
(assert (= (select D 349) (row1 174)))
(assert (= (select D 350) (row1 113)))
(assert (= (select D 351) (row1 808)))
(assert (= (select D 352) (row1 198)))
(assert (= (select D 353) (row1 195)))
(assert (= (select D 354) (row1 347)))
(assert (= (select D 355) (row1 208)))
(assert (= (select D 356) (row1 404)))
(assert (= (select D 357) (row1 396)))
(assert (= (select D 358) (row1 216)))
(assert (= (select D 359) (row1 98)))
(assert (= (select D 360) (row1 350)))
(assert (= (select D 361) (row1 114)))
(assert (= (select D 362) (row1 88)))
(assert (= (select D 363) (row1 379)))
(assert (= (select D 364) (row1 190)))
(assert (= (select D 365) (row1 158)))
(assert (= (select D 366) (row1 102)))
(assert (= (select D 367) (row1 306)))
(assert (= (select D 368) (row1 218)))
(assert (= (select D 369) (row1 54)))
(assert (= (select D 370) (row1 344)))
(assert (= (select D 371) (row1 195)))
(assert (= (select D 372) (row1 652)))
(assert (= (select D 373) (row1 286)))
(assert (= (select D 374) (row1 189)))
(assert (= (select D 375) (row1 83)))
(assert (= (select D 376) (row1 184)))
(assert (= (select D 377) (row1 235)))
(assert (= (select D 378) (row1 290)))
(assert (= (select D 379) (row1 232)))
(assert (= (select D 380) (row1 133)))
(assert (= (select D 381) (row1 318)))
(assert (= (select D 382) (row1 260)))
(assert (= (select D 383) (row1 437)))
(assert (= (select D 384) (row1 402)))
(assert (= (select D 385) (row1 85)))
(assert (= (select D 386) (row1 125)))
(assert (= (select D 387) (row1 501)))
(assert (= (select D 388) (row1 1201)))
(assert (= (select D 389) (row1 253)))
(assert (= (select D 390) (row1 1030)))
(assert (= (select D 391) (row1 149)))
(assert (= (select D 392) (row1 114)))
(assert (= (select D 393) (row1 243)))
(assert (= (select D 394) (row1 769)))
(assert (= (select D 395) (row1 135)))
(assert (= (select D 396) (row1 231)))
(assert (= (select D 397) (row1 76)))
(assert (= (select D 398) (row1 199)))
(assert (= (select D 399) (row1 152)))
(assert (= (select D 400) (row1 124)))
(assert (= (select D 401) (row1 424)))
(assert (= (select D 402) (row1 43)))
(assert (= (select D 403) (row1 154)))
(assert (= (select D 404) (row1 203)))
(assert (= (select D 405) (row1 326)))
(assert (= (select D 406) (row1 393)))
(assert (= (select D 407) (row1 241)))
(assert (= (select D 408) (row1 483)))
(assert (= (select D 409) (row1 259)))
(assert (= (select D 410) (row1 227)))
(assert (= (select D 411) (row1 673)))
(assert (= (select D 412) (row1 576)))
(assert (= (select D 413) (row1 180)))
(assert (= (select D 414) (row1 168)))
(assert (= (select D 415) (row1 90)))
(assert (= (select D 416) (row1 505)))
(assert (= (select D 417) (row1 245)))
(assert (= (select D 418) (row1 186)))
(assert (= (select D 419) (row1 623)))
(assert (= (select D 420) (row1 496)))
(assert (= (select D 421) (row1 118)))
(assert (= (select D 422) (row1 342)))
(assert (= (select D 423) (row1 225)))
(assert (= (select D 424) (row1 185)))
(assert (= (select D 425) (row1 196)))
(assert (= (select D 426) (row1 276)))
(assert (= (select D 427) (row1 76)))
(assert (= (select D 428) (row1 87)))
(assert (= (select D 429) (row1 195)))
(assert (= (select D 430) (row1 744)))
(assert (= (select D 431) (row1 765)))
(assert (= (select D 432) (row1 262)))
(assert (= (select D 433) (row1 119)))
(assert (= (select D 434) (row1 198)))
(assert (= (select D 435) (row1 150)))
(assert (= (select D 436) (row1 241)))
(assert (= (select D 437) (row1 181)))
(assert (= (select D 438) (row1 196)))
(assert (= (select D 439) (row1 149)))
(assert (= (select D 440) (row1 246)))
(assert (= (select D 441) (row1 112)))
(assert (= (select D 442) (row1 309)))
(assert (= (select D 443) (row1 278)))
(assert (= (select D 444) (row1 140)))
(assert (= (select D 445) (row1 136)))
(assert (= (select D 446) (row1 1623)))
(assert (= (select D 447) (row1 101)))
(assert (= (select D 448) (row1 144)))
(assert (= (select D 449) (row1 238)))
(assert (= (select D 450) (row1 354)))
(assert (= (select D 451) (row1 79)))
(assert (= (select D 452) (row1 187)))
(assert (= (select D 453) (row1 451)))
(assert (= (select D 454) (row1 159)))
(assert (= (select D 455) (row1 409)))
(assert (= (select D 456) (row1 170)))
(assert (= (select D 457) (row1 608)))
(assert (= (select D 458) (row1 243)))
(assert (= (select D 459) (row1 145)))
(assert (= (select D 460) (row1 112)))
(assert (= (select D 461) (row1 262)))
(assert (= (select D 462) (row1 124)))
(assert (= (select D 463) (row1 53)))
(assert (= (select D 464) (row1 134)))
(assert (= (select D 465) (row1 204)))
(assert (= (select D 466) (row1 186)))
(assert (= (select D 467) (row1 678)))
(assert (= (select D 468) (row1 182)))
(assert (= (select D 469) (row1 162)))
(assert (= (select D 470) (row1 27)))
(assert (= (select D 471) (row1 699)))
(assert (= (select D 472) (row1 43)))
(assert (= (select D 473) (row1 97)))
(assert (= (select D 474) (row1 1677)))
(assert (= (select D 475) (row1 283)))
(assert (= (select D 476) (row1 323)))
(assert (= (select D 477) (row1 82)))
(assert (= (select D 478) (row1 310)))
(assert (= (select D 479) (row1 185)))
(assert (= (select D 480) (row1 47)))
(assert (= (select D 481) (row1 145)))
(assert (= (select D 482) (row1 204)))
(assert (= (select D 483) (row1 187)))
(assert (= (select D 484) (row1 30)))
(assert (= (select D 485) (row1 472)))
(assert (= (select D 486) (row1 448)))
(assert (= (select D 487) (row1 264)))
(assert (= (select D 488) (row1 169)))
(assert (= (select D 489) (row1 288)))
(assert (= (select D 490) (row1 176)))
(assert (= (select D 491) (row1 215)))
(assert (= (select D 492) (row1 337)))
(assert (= (select D 493) (row1 278)))
(assert (= (select D 494) (row1 188)))
(assert (= (select D 495) (row1 174)))
(assert (= (select D 496) (row1 226)))
(assert (= (select D 497) (row1 190)))
(assert (= (select D 498) (row1 111)))
(assert (= (select D 499) (row1 164)))
(assert (= (select D 500) (row1 157)))
(assert (= (select D 501) (row1 46)))
(assert (= (select D 502) (row1 374)))
(assert (= (select D 503) (row1 349)))
(assert (= (select D 504) (row1 325)))
(assert (= (select D 505) (row1 233)))
(assert (= (select D 506) (row1 531)))
(assert (= (select D 507) (row1 153)))
(assert (= (select D 508) (row1 80)))
(assert (= (select D 509) (row1 232)))
(assert (= (select D 510) (row1 118)))
(assert (= (select D 511) (row1 190)))
(assert (= (select D 512) (row1 918)))
(assert (= (select D 513) (row1 238)))
(assert (= (select D 514) (row1 82)))
(assert (= (select D 515) (row1 198)))
(assert (= (select D 516) (row1 160)))
(assert (= (select D 517) (row1 211)))
(assert (= (select D 518) (row1 120)))
(assert (= (select D 519) (row1 136)))
(assert (= (select D 520) (row1 269)))
(assert (= (select D 521) (row1 157)))
(assert (= (select D 522) (row1 128)))
(assert (= (select D 523) (row1 211)))
(assert (= (select D 524) (row1 267)))
(assert (= (select D 525) (row1 371)))
(assert (= (select D 526) (row1 288)))
(assert (= (select D 527) (row1 221)))
(assert (= (select D 528) (row1 427)))
(assert (= (select D 529) (row1 310)))
(assert (= (select D 530) (row1 158)))
(assert (= (select D 531) (row1 604)))
(assert (= (select D 532) (row1 198)))
(assert (= (select D 533) (row1 145)))
(assert (= (select D 534) (row1 247)))
(assert (= (select D 535) (row1 179)))
(assert (= (select D 536) (row1 73)))
(assert (= (select D 537) (row1 263)))
(assert (= (select D 538) (row1 13)))
(assert (= (select D 539) (row1 79)))
(assert (= (select D 540) (row1 416)))
(assert (= (select D 541) (row1 162)))
(assert (= (select D 542) (row1 129)))
(assert (= (select D 543) (row1 150)))
(assert (= (select D 544) (row1 43)))
(assert (= (select D 545) (row1 191)))
(assert (= (select D 546) (row1 26)))
(assert (= (select D 547) (row1 250)))
(assert (= (select D 548) (row1 146)))
(assert (= (select D 549) (row1 416)))
(assert (= (select D 550) (row1 121)))
(assert (= (select D 551) (row1 114)))
(assert (= (select D 552) (row1 289)))
(assert (= (select D 553) (row1 225)))
(assert (= (select D 554) (row1 123)))
(assert (= (select D 555) (row1 130)))
(assert (= (select D 556) (row1 161)))
(assert (= (select D 557) (row1 149)))
(assert (= (select D 558) (row1 268)))
(assert (= (select D 559) (row1 259)))
(assert (= (select D 560) (row1 26)))
(assert (= (select D 561) (row1 153)))
(assert (= (select D 562) (row1 424)))
(assert (= (select D 563) (row1 179)))
(assert (= (select D 564) (row1 97)))
(assert (= (select D 565) (row1 383)))
(assert (= (select D 566) (row1 440)))
(assert (= (select D 567) (row1 23)))
(assert (= (select D 568) (row1 195)))
(assert (= (select D 569) (row1 1297)))
(assert (= (select D 570) (row1 87)))
(assert (= (select D 571) (row1 427)))
(assert (= (select D 572) (row1 189)))
(assert (= (select D 573) (row1 195)))
(assert (= (select D 574) (row1 179)))
(assert (= (select D 575) (row1 179)))
(assert (= (select D 576) (row1 69)))
(assert (= (select D 577) (row1 105)))
(assert (= (select D 578) (row1 266)))
(assert (= (select D 579) (row1 524)))
(assert (= (select D 580) (row1 96)))
(assert (= (select D 581) (row1 155)))
(assert (= (select D 582) (row1 162)))
(assert (= (select D 583) (row1 352)))
(assert (= (select D 584) (row1 76)))
(assert (= (select D 585) (row1 154)))
(assert (= (select D 586) (row1 310)))
(assert (= (select D 587) (row1 390)))
(assert (= (select D 588) (row1 369)))
(assert (= (select D 589) (row1 112)))
(assert (= (select D 590) (row1 341)))
(assert (= (select D 591) (row1 79)))
(assert (= (select D 592) (row1 140)))
(assert (= (select D 593) (row1 315)))
(assert (= (select D 594) (row1 262)))
(assert (= (select D 595) (row1 174)))
(assert (= (select D 596) (row1 138)))
(assert (= (select D 597) (row1 526)))
(assert (= (select D 598) (row1 135)))
(assert (= (select D 599) (row1 36)))


(assert
  (forall ((i Int))
    (=>
      (and (>= i 0) (< i m))
      (and
        (>= (select (select D i) 0) 0)
        (<  (select (select D i) 0) 6000)
      )
    )
  )
)

(check-sat)
